Route #1: 18 5 50 39 49 7 28 4
Route #2: 23 20 36 1 17 10 15 35 43
Route #3: 38 9 33 21 45 26 29
Route #4: 13 22 3 53 44
Route #5: 32 37 48 40 31 8 19 11
Route #6: 16 6 27 12 2 14
Route #7: 30 25 47 51 24 42 46 41 34 52
Cost 1171
Time 0.086016
